32      1       
17      
0       0       3       2       3       4       
4       0       2       22      26      
5       0       2       6       15      
5       0       1       5       
6       0       3       9       10      11      
1       0       3       7       8       23      
5       0       1       17      
7       4       2       12      24      
1       0       1       21      
2       6       2       25      28      
3       10      3       14      16      17      
4       0       3       13      18      27      
8       0       1       21      
10      3       2       22      23      
4       10      1       19      
5       0       1       20      
10      4       1       31      
7       0       1       28      
10      2       1       26      
4       4       1       26      
8       9       2       28      30      
7       0       1       29      
3       0       1       24      
9       9       2       25      27      
7       8       1       30      
6       2       1       30      
9       0       1       31      
10      0       1       31      
3       5       1       32      
1       5       1       32      
4       6       1       32      
0       0       0       